proyfinal/src/viki/013/experimentInOfficeAgust.take6.output/20e67df4-bb64-4be5-8040-0d90f279eb25.als.out
Reading from standard input... Use '--help' for help.
============================[ Problem Statistics ]=============================
|                                                                             |
|  Number of variables:         87638                                         |
|  Number of clauses:          161767                                         |
|  Parse time:                   0.04 s                                       |
|                                                                             |
============================[ Search Statistics ]==============================
| Conflicts |          ORIGINAL         |          LEARNT          | Progress |
|           |    Vars  Clauses Literals |    Limit  Clauses Lit/Cl |          |
===============================================================================
|       100 |   63940   110703   276763 |    40591      100      9 | 27.041 % |
|       250 |   63940   110703   276763 |    44650      250     40 | 27.041 % |
|       475 |   63922   110629   276592 |    49115      474     30 | 27.061 % |
|       812 |   63922   110629   276592 |    54026      811     86 | 27.061 % |
|      1318 |   63875   110393   276062 |    59429     1313     86 | 27.115 % |
|      2077 |   63853   110301   275851 |    65372     2071     86 | 27.140 % |
|      3216 |   63824   110183   275577 |    71909     3209    135 | 27.173 % |
|      4924 |   50001    69832   175909 |    79100     4295    107 | 42.946 % |
|      7486 |   49453    67030   169074 |    87010     6733     83 | 43.571 % |
|     11330 |   49399    66680   168255 |    95711    10274     72 | 43.633 % |
===============================================================================
restarts              : 62
conflicts             : 15980          (7677 /sec)
decisions             : 51929          (0.00 % random) (24946 /sec)
propagations          : 21189000       (10178822 /sec)
conflict literals     : 1025596        (39.35 % deleted)
Memory used           : 32.43 MB
CPU time              : 2.08168 s

UNSATISFIABLE
